(set-info :smt-lib-version 2.6)
(set-logic ALL)
(set-info :source |
Benchmarks used in the followin paper:
Big proof engines as little proof engines: new results on rewrite-based satisfiability procedure
Alessandro Armando, Maria Paola Bonacina, Silvio Ranise, Stephan Schulz. 
PDPAR'05
http://www.ai.dist.unige.it/pdpar05/


|)
(set-info :category "crafted")
(set-info :status unsat)

(declare-sort Element 0)
(declare-fun a_394 () (Seq Element))
(declare-fun a_395 () (Seq Element))
(declare-fun a_397 () (Seq Element))
(declare-fun a_399 () (Seq Element))
(declare-fun a_401 () (Seq Element))
(declare-fun a_402 () (Seq Element))
(declare-fun a_404 () (Seq Element))
(declare-fun a_406 () (Seq Element))
(declare-fun a_407 () (Seq Element))
(declare-fun a_408 () (Seq Element))
(declare-fun a_410 () (Seq Element))
(declare-fun a_411 () (Seq Element))
(declare-fun a_413 () (Seq Element))
(declare-fun a_415 () (Seq Element))
(declare-fun e_393 () Element)
(declare-fun e_396 () Element)
(declare-fun e_398 () Element)
(declare-fun e_400 () Element)
(declare-fun e_403 () Element)
(declare-fun e_405 () Element)
(declare-fun e_409 () Element)
(declare-fun e_412 () Element)
(declare-fun e_414 () Element)
(declare-fun a1 () (Seq Element))
(declare-fun i0 () Int)
(declare-fun i1 () Int)
(declare-fun i2 () Int)
(declare-fun i3 () Int)
(assert (= a_394 (seq.update a1 i1 (seq.unit e_393))))
(assert (= a_395 (seq.update a_394 i1 (seq.unit e_393))))
(assert (= a_397 (seq.update a_395 i2 (seq.unit e_396))))
(assert (= a_399 (seq.update a_397 i0 (seq.unit e_398))))
(assert (= a_401 (seq.update a_399 i3 (seq.unit e_400))))
(assert (= a_402 (seq.update a_401 i3 (seq.unit e_400))))
(assert (= a_404 (seq.update a_402 i1 (seq.unit e_403))))
(assert (= a_406 (seq.update a_404 i2 (seq.unit e_405))))
(assert (= a_407 (seq.update a_395 i0 (seq.unit e_398))))
(assert (= a_408 (seq.update a_407 i2 (seq.unit e_396))))
(assert (= a_410 (seq.update a_408 i3 (seq.unit e_409))))
(assert (= a_411 (seq.update a_410 i3 (seq.unit e_409))))
(assert (= a_413 (seq.update a_411 i1 (seq.unit e_412))))
(assert (= a_415 (seq.update a_413 i2 (seq.unit e_414))))
(assert (= e_393 (seq.nth a1 i1)))
(assert (= e_396 (seq.nth a_395 i0)))
(assert (= e_398 (seq.nth a_395 i2)))
(assert (= e_400 (seq.nth a_399 i3)))
(assert (= e_403 (seq.nth a_402 i2)))
(assert (= e_405 (seq.nth a_402 i1)))
(assert (= e_409 (seq.nth a_408 i3)))
(assert (= e_412 (seq.nth a_411 i2)))
(assert (= e_414 (seq.nth a_411 i1)))
(assert (not (= a_406 a_415)))
(check-sat)
(exit)
